(declare-fun bvlambda_1_ () (_ BitVec 1))
(declare-fun a77 () (Array (_ BitVec 1) (_ BitVec 2)))
(assert
(let (($e22 (_ bv2 2)))
(let (($e246 (store a77 (not false  )      $e22 )))
(let (($e394 (concat (not false  ) (not false  ))))
(let (($e396 (select $e246 (not   bvlambda_1_))))
(let (($e397      (bvult $e396 $e394)         ))
                    (not   $e397)
                                                                                                                                                                                                                                                                                                                                                                               )) )                                                                                                                                                   )                                                                                                                                                                                                     )                     )
